100
30
31
16
1
4
25
12
31
21
2
7
13
13
3
32
4
1
16
32
23
31
30
21
6
32
17
5
16
16
18
14
23
2
12
12
9
8
1
7
18
19
18
12
13
31
29
27
9
2
25
10
26
10
6
4
1
23
4
3
1
6
32
5
26
10
31
6
28
5
4
13
17
2
31
23
11
7
18
9
31
24
31
4
31
31
1
13
22
22
4
13
6
10
18
5
6
15
3
2
1
5